data/lp_files/pEFS/44_4.lp
\ Model foo
\ LP format - for model browsing. Use MPS format to capture full model detail.
Minimize
  z
Subject To
 allocateEach[1]: x[1,1] + x[2,1] + x[3,1] = 1
 allocateEach[2]: x[1,2] + x[2,2] + x[3,2] = 1
 allocateEach[3]: x[1,3] + x[2,3] + x[3,3] = 1
 allocateEach[4]: x[1,4] + x[2,4] + x[3,4] = 1
 allocateAllCash: cashProportion[1] + cashProportion[2] + cashProportion[3]
   = 1
 findWorstP[1,2]: z + 0.07696096539835 cashProportion[1]
   - 0.07696096539835 cashProportion[2] + 0.2142901120551656 x[1,1]
   + 0.2133050116980667 x[1,2] + 0.2834934121413619 x[1,3]
   + 0.2119504987070558 x[1,4] - 0.2142901120551656 x[2,1]
   - 0.2133050116980667 x[2,2] - 0.2834934121413619 x[2,3]
   - 0.2119504987070558 x[2,4] >= 0
 findWorstP[1,3]: z + 0.07696096539835 cashProportion[1]
   - 0.07696096539835 cashProportion[3] + 0.2142901120551656 x[1,1]
   + 0.2133050116980667 x[1,2] + 0.2834934121413619 x[1,3]
   + 0.2119504987070558 x[1,4] - 0.2142901120551656 x[3,1]
   - 0.2133050116980667 x[3,2] - 0.2834934121413619 x[3,3]
   - 0.2119504987070558 x[3,4] >= 0
 findWorstP[2,1]: z - 0.0728990493963959 cashProportion[1]
   + 0.0728990493963959 cashProportion[2] - 0.2233626873505569 x[1,1]
   - 0.2791741995684376 x[1,2] - 0.276112439493789 x[1,3]
   - 0.1484516241908206 x[1,4] + 0.2233626873505569 x[2,1]
   + 0.2791741995684376 x[2,2] + 0.276112439493789 x[2,3]
   + 0.1484516241908206 x[2,4] >= 0
 findWorstP[2,3]: z + 0.0728990493963959 cashProportion[2]
   - 0.0728990493963959 cashProportion[3] + 0.2233626873505569 x[2,1]
   + 0.2791741995684376 x[2,2] + 0.276112439493789 x[2,3]
   + 0.1484516241908206 x[2,4] - 0.2233626873505569 x[3,1]
   - 0.2791741995684376 x[3,2] - 0.276112439493789 x[3,3]
   - 0.1484516241908206 x[3,4] >= 0
 findWorstP[3,1]: z - 0.0901875901875902 cashProportion[1]
   + 0.0901875901875902 cashProportion[3] - 0.090007215007215 x[1,1]
   - 0.2147186147186147 x[1,2] - 0.2542929292929293 x[1,3]
   - 0.3507936507936508 x[1,4] + 0.090007215007215 x[3,1]
   + 0.2147186147186147 x[3,2] + 0.2542929292929293 x[3,3]
   + 0.3507936507936508 x[3,4] >= 0
 findWorstP[3,2]: z - 0.0901875901875902 cashProportion[2]
   + 0.0901875901875902 cashProportion[3] - 0.090007215007215 x[2,1]
   - 0.2147186147186147 x[2,2] - 0.2542929292929293 x[2,3]
   - 0.3507936507936508 x[2,4] + 0.090007215007215 x[3,1]
   + 0.2147186147186147 x[3,2] + 0.2542929292929293 x[3,3]
   + 0.3507936507936508 x[3,4] >= 0
Bounds
 z <= 1
 -infinity <= cashProportion[1] <= 1
 -infinity <= cashProportion[2] <= 1
 -infinity <= cashProportion[3] <= 1
Binaries
 x[1,1] x[1,2] x[1,3] x[1,4] x[2,1] x[2,2] x[2,3] x[2,4] x[3,1] x[3,2]
 x[3,3] x[3,4]
End
